15
1 0 1
2 0 2
2 1 2
3 0 2
3 1 1
3 2 2
4 0 2
4 1 1
4 2 2
4 3 2
5 0 1
5 1 2
5 2 1
5 3 2
5 4 1
6 0 2
6 1 1
6 2 2
6 3 2
6 4 1
6 5 2
7 0 2
7 1 2
7 2 2
7 3 1
7 4 2
7 5 2
7 6 2
8 0 1
8 1 2
8 2 2
8 3 2
8 4 2
8 5 2
8 6 2
8 7 2
9 0 1
9 1 2
9 2 2
9 3 1
9 4 1
9 5 1
9 6 2
9 7 2
9 8 2
10 0 2
10 1 2
10 2 2
10 3 1
10 4 1
10 5 2
10 6 1
10 7 2
10 8 1
10 9 2
11 0 1
11 1 1
11 2 1
11 3 1
11 4 2
11 5 2
11 6 2
11 7 2
11 8 1
11 9 2
11 10 1
12 0 1
12 1 2
12 2 2
12 3 1
12 4 1
12 5 1
12 6 1
12 7 1
12 8 1
12 9 2
12 10 1
12 11 1
13 0 1
13 1 1
13 2 2
13 3 2
13 4 1
13 5 1
13 6 2
13 7 2
13 8 2
13 9 2
13 10 1
13 11 1
13 12 1
14 0 2
14 1 1
14 2 1
14 3 1
14 4 2
14 5 2
14 6 2
14 7 1
14 8 2
14 9 1
14 10 2
14 11 1
14 12 1
14 13 2
